t = 8; %number of attributes
k = 3; %maximum size of support set
n = 5; %number of positive instances
m = 3; %number of negative instances
c = 4; %number of atMostOne Constraints

omegap=[| 1,0,1,0,0,0,1,1|
0,0,0,1,1,1,1,0|
0,1,0,1,1,0,1,1|
0,1,1,0,1,1,1,0|
1,0,0,0,0,0,1,0
|];

omegan=[| 1,0,0,0,0,1,1,1|
0,0,1,0,1,1,0,0|
0,1,0,1,0,1,0,0
|];

atMostOne =
[{3,4},
{1,2,6},
{2,4,5,7,8},
{2,4,5,6,7}];